kpoints for bandstructure L-G-X-G
 40
line
reciprocal
  0.50000  0.50000  0.50000    !L
  0.00000  0.00000  0.00000    !G

  0.00000  0.00000  0.00000    !G
  0.00000  0.50000  0.50000    !X

  0.00000  0.50000  0.50000    !X
  0.00000  0.00000  0.00000    !G
