long high symmetry lines for hexagonal str.
200
line
rec
0.000    0.000    0.000  ! Gamma
0.500    0.000    0.000  ! M

0.500    0.000    0.000  ! M
0.333333 0.333333 0.000  ! K

0.333333 0.333333 0.000  ! K
0.000    0.000    0.000  ! Gamma
