AtomicCoordinatesFormat  Fractional
LatticeConstant  1.0  Ang

NumberOfAtoms    3
NumberOfSpecies  2

%block LatticeVectors
       10.0        0.0000000000         0.0000000000
       0.0         10.0                 0.0000000000
       0.00        0.00                 10.0
%endblock LatticeVectors

%block ChemicalSpeciesLabel
   1    1    H
   2    8    O
%endblock ChemicalSpeciesLabel

%block AtomicCoordinatesAndAtomicSpecies
    0.44820475    0.41355314    0.41547532   1       1  H
    0.57091037    0.41168595    0.50808773   1       2  H
    0.47461484    0.41168595    0.50808773   2       3  O
%endblock AtomicCoordinatesAndAtomicSpecies

MD.UseSaveXV T
SolutionMethod      evolve
XML.Write False
MaxSCFIterations 100
DM.AllowExtrapolation .false.
XC.functional GGA
XC.authors  PBE
SCFMustConverge T
SlabDipoleCorrection True
SaveRho       F
WriteMDHistory .true.
LongOutput
#WriteDenchar T

TD.LengthTimeStep   0.05 fs
TD.FinalTimeStep    1000
TD.WriteDMOfSelectiveOrbitals True
%block TD.PartialDMBand
1
4
5
6
%endblock TD.PartialDMBand
%block TD.PartialDMSumOrbitals
1 4
5 10
%endblock TD.PartialDMSumOrbitals

%block ExternalElectricField
0.01 0.0 0.0 Ry/Bohr/e
%endblock ExternalElectricField

TD.LightFrequency 1.932 fs
TD.LightInitialTime 10.66 fs
TD.LightTimeScale 6 fs

MD.TypeOfRun        verlet
MD.FinalTimeStep      1000
MD.LengthTimeStep     0.05 fs
MD.InitialTemperature  293 k

DM.NumberPulay        5
SCF.Pulay.Damping     0.5
MeshCutoff 200 Ry

DM.MixingWeight       0.3         # New DM amount for next SCF cycle
DM.Tolerance     1.d-4

%block kgrid_Monkhorst_Pack
1 0 0 0.0
0 1 0 0.0
0 0 1 0.0
%endblock kgrid_Monkhorst_Pack

