si2                                     
   1.00000000000000     
     3.8264369800603437    0.0000000000000000    0.0000000000000000
     1.9132184900301719    3.3137916306793720   -0.0000000000003706
     1.9132184900301719    1.1045972102590917    3.1242727113877939
   Si
     2
Direct
  0.7499999790000018  0.7499999830000021  0.7499999970000033
  0.5000000069999970  0.4999999890000026  0.4999999979999998
 
  0.00000000E+00  0.00000000E+00  0.00000000E+00
  0.00000000E+00  0.00000000E+00  0.00000000E+00
