ALGO = Fast
EDIFF = 0.0000105
EDIFFG = -0.001
ENCUT = 520
IBRION = -1
ICHARG = 1
ISIF = 2
ISMEAR = 1
LREAL = Auto
LWAVE = True
NELM = 100
NSW = 0
PREC = Accurate
SIGMA = 0.05
NPAR = 2
LORBIT = 11
NEDOS = 1000
