pymatgen 4.7.6+ generated KPOINTS with grid density = 247 / atom
0
Gamma
13 13  1

