ALGO = Fast
ISTART = 0
EDIFF = 1E-05
EDIFFG = -0.01
ENCUT = 520
IBRION = 2
ICHARG = 2
ISIF = 3
ISMEAR = -5
ISPIN = 2
LORBIT = 11
LCHARG = False
LREAL = Auto
LWAVE = False
MAGMOM = 2*0.6 
NSW = 100
PREC = Accurate
SIGMA = 0.05
IVDW = 1
#NCORE = 36