pymatgen v1.1 with grid density = 777 / atom
0
Monkhorst
4 4 4
