ALGO = Fast
ISTART = 0
EDIFF = 1E-05
EDIFFG = -0.01
ENCUT = 520
IBRION = -1
ICHARG = 11
ISIF = 3
ISMEAR = -5
ISPIN = 2
LORBIT = 11
#LCHARG = False
LREAL = Auto
LWAVE = False
MAGMOM = 2*0.6 
NEDOS =1000
NSW = 0
PREC = Accurate
SIGMA = 0.05
IVDW = 1
#NCORE = 36
