pymatgen v1.1 with grid density = 777 / atom
0
Monkhorst
21 21 21
