ALGO = Fast
EDIFF = 0.0064
ENCUT = 520
IBRION = 2
ICHARG = 1
ISIF = 3
ISMEAR = 0
ISPIN = 2
LORBIT = 11
LREAL = Auto
LWAVE = False
LCHARG = False
MAGMOM = 128*0.6
NELM = 100
NSW = 99
PREC = Accurate
SIGMA = 0.05
NCORE = 36

