Si128
1.0
13.395593 0.000000 7.733949
4.465198 12.629486 7.733949
0.000000 0.000000 15.467898
Si
128
direct
0.218750 0.218750 0.218750 Si
0.218750 0.218750 0.468750 Si
0.218750 0.218750 0.718750 Si
0.218750 0.218750 0.968750 Si
0.218750 0.468750 0.218750 Si
0.218750 0.468750 0.468750 Si
0.218750 0.468750 0.718750 Si
0.218750 0.468750 0.968750 Si
0.218750 0.718750 0.218750 Si
0.218750 0.718750 0.468750 Si
0.218750 0.718750 0.718750 Si
0.218750 0.718750 0.968750 Si
0.218750 0.968750 0.218750 Si
0.218750 0.968750 0.468750 Si
0.218750 0.968750 0.718750 Si
0.218750 0.968750 0.968750 Si
0.468750 0.218750 0.218750 Si
0.468750 0.218750 0.468750 Si
0.468750 0.218750 0.718750 Si
0.468750 0.218750 0.968750 Si
0.468750 0.468750 0.218750 Si
0.468750 0.468750 0.468750 Si
0.468750 0.468750 0.718750 Si
0.468750 0.468750 0.968750 Si
0.468750 0.718750 0.218750 Si
0.468750 0.718750 0.468750 Si
0.468750 0.718750 0.718750 Si
0.468750 0.718750 0.968750 Si
0.468750 0.968750 0.218750 Si
0.468750 0.968750 0.468750 Si
0.468750 0.968750 0.718750 Si
0.468750 0.968750 0.968750 Si
0.718750 0.218750 0.218750 Si
0.718750 0.218750 0.468750 Si
0.718750 0.218750 0.718750 Si
0.718750 0.218750 0.968750 Si
0.718750 0.468750 0.218750 Si
0.718750 0.468750 0.468750 Si
0.718750 0.468750 0.718750 Si
0.718750 0.468750 0.968750 Si
0.718750 0.718750 0.218750 Si
0.718750 0.718750 0.468750 Si
0.718750 0.718750 0.718750 Si
0.718750 0.718750 0.968750 Si
0.718750 0.968750 0.218750 Si
0.718750 0.968750 0.468750 Si
0.718750 0.968750 0.718750 Si
0.718750 0.968750 0.968750 Si
0.968750 0.218750 0.218750 Si
0.968750 0.218750 0.468750 Si
0.968750 0.218750 0.718750 Si
0.968750 0.218750 0.968750 Si
0.968750 0.468750 0.218750 Si
0.968750 0.468750 0.468750 Si
0.968750 0.468750 0.718750 Si
0.968750 0.468750 0.968750 Si
0.968750 0.718750 0.218750 Si
0.968750 0.718750 0.468750 Si
0.968750 0.718750 0.718750 Si
0.968750 0.718750 0.968750 Si
0.968750 0.968750 0.218750 Si
0.968750 0.968750 0.468750 Si
0.968750 0.968750 0.718750 Si
0.968750 0.968750 0.968750 Si
0.031250 0.031250 0.031250 Si
0.031250 0.031250 0.281250 Si
0.031250 0.031250 0.531250 Si
0.031250 0.031250 0.781250 Si
0.031250 0.281250 0.031250 Si
0.031250 0.281250 0.281250 Si
0.031250 0.281250 0.531250 Si
0.031250 0.281250 0.781250 Si
0.031250 0.531250 0.031250 Si
0.031250 0.531250 0.281250 Si
0.031250 0.531250 0.531250 Si
0.031250 0.531250 0.781250 Si
0.031250 0.781250 0.031250 Si
0.031250 0.781250 0.281250 Si
0.031250 0.781250 0.531250 Si
0.031250 0.781250 0.781250 Si
0.281250 0.031250 0.031250 Si
0.281250 0.031250 0.281250 Si
0.281250 0.031250 0.531250 Si
0.281250 0.031250 0.781250 Si
0.281250 0.281250 0.031250 Si
0.281250 0.281250 0.281250 Si
0.281250 0.281250 0.531250 Si
0.281250 0.281250 0.781250 Si
0.281250 0.531250 0.031250 Si
0.281250 0.531250 0.281250 Si
0.281250 0.531250 0.531250 Si
0.281250 0.531250 0.781250 Si
0.281250 0.781250 0.031250 Si
0.281250 0.781250 0.281250 Si
0.281250 0.781250 0.531250 Si
0.281250 0.781250 0.781250 Si
0.531250 0.031250 0.031250 Si
0.531250 0.031250 0.281250 Si
0.531250 0.031250 0.531250 Si
0.531250 0.031250 0.781250 Si
0.531250 0.281250 0.031250 Si
0.531250 0.281250 0.281250 Si
0.531250 0.281250 0.531250 Si
0.531250 0.281250 0.781250 Si
0.531250 0.531250 0.031250 Si
0.531250 0.531250 0.281250 Si
0.531250 0.531250 0.531250 Si
0.531250 0.531250 0.781250 Si
0.531250 0.781250 0.031250 Si
0.531250 0.781250 0.281250 Si
0.531250 0.781250 0.531250 Si
0.531250 0.781250 0.781250 Si
0.781250 0.031250 0.031250 Si
0.781250 0.031250 0.281250 Si
0.781250 0.031250 0.531250 Si
0.781250 0.031250 0.781250 Si
0.781250 0.281250 0.031250 Si
0.781250 0.281250 0.281250 Si
0.781250 0.281250 0.531250 Si
0.781250 0.281250 0.781250 Si
0.781250 0.531250 0.031250 Si
0.781250 0.531250 0.281250 Si
0.781250 0.531250 0.531250 Si
0.781250 0.531250 0.781250 Si
0.781250 0.781250 0.031250 Si
0.781250 0.781250 0.281250 Si
0.781250 0.781250 0.531250 Si
0.781250 0.781250 0.781250 Si

