general:
 System = diamond Si
 START  = 0
 ICHARG = 2
 ENCUT  = 360
 ISMEAR = 0; SIGMA = 0.1;
 NSW    = 5; IBRION =  2
 ISIF   = 2
