cubic diamond
   5.468
  0.0    0.5    0.5
  0.5    0.0    0.5
  0.5    0.5    0.0
  Si
  2
Selective dynamics
Direct
  0.00  0.00  0.00  F  F  F
  0.25  0.25  0.30  T  T  T
