Fe5
1.0
4.027844 0.000000 0.000000
2.013922 1.162738 3.288721
0.000000 0.000000 44.397734
Fe
5
direct
0.000000 0.000000 0.027778 Fe
0.000000 0.000000 0.083333 Fe
0.000000 0.000000 0.138889 Fe
0.000000 0.000000 0.194444 Fe
0.000000 0.000000 0.250000 Fe
