Ag21                                    
   1.00000000000000     
     5.0249749181009982    0.0000000000000000    0.0000000000000000
     2.5124874590504991    4.3517559324550934    0.0000000000000000
     0.0000000000000000    0.0000000000000000   67.7815579488835169
   Ag   Te
     1     1
Selective dynamics
Direct
  0.9975994980304890  0.3377115289519850  0.2475486941927656   T   T   T
  0.6639508120400635  0.0051667079709361  0.2476642089024352   T   T   T
 
  0.00000000E+00  0.00000000E+00  0.00000000E+00
  0.00000000E+00  0.00000000E+00  0.00000000E+00
