ALGO = Fast
EDIFF = 0.0000105
EDIFFG = -0.001
ENCUT = 520
IBRION = -1
ICHARG = 11
ISIF = 2
ISMEAR = 0
LREAL = Auto
LWAVE = False
NELM = 100
NSW = 0
PREC = Accurate
SIGMA = 0.05
NPAR = 2
LORBIT =11
